&CONTROL
  title         = 'Paracetamol conformation energy PBE-D3 Form 2'
  calculation   = 'scf'
  verbosity     = 'default'
  disk_io       = 'low'
  pseudo_dir    = '/rds/general/user/hz1420/home/apps/QE-7.1/share/pseudo/'
  tprnfor       = .true.
  tstress       = .true.
/
&SYSTEM
  ibrav               = 1
  celldm(1)           = 50
  nat                 = 20
  ntyp                = 4
  ecutwfc             = 100
  ecutrho             = 400
  occupations         = 'fixed'
  input_dft           = 'pbe'
  vdw_corr            = 'dft-d3'
  dftd3_version       = 4
  dftd3_threebody     = .TRUE.
  space_group         = 0
  assume_isolated     = 'makov-payne'
/
&ELECTRONS
  electron_maxstep = 100
  conv_thr         = 2.0D-9
  startingwfc      = 'atomic'
/
ATOMIC_SPECIES
  O  16.00  O.pbe-n-kjpaw_psl.1.0.0.UPF
  N  14.01  N.pbe-n-kjpaw_psl.1.0.0.UPF
  C  12.01  C.pbe-n-kjpaw_psl.1.0.0.UPF
  H   1.008 H.pbe-kjpaw_psl.1.0.0.UPF

ATOMIC_POSITIONS {angstrom}
 H   4.865857582711E-01  3.953629002086E+00  8.758397361862E-01
 C   9.704942697101E-01  3.984964686121E+00 -1.007432133120E-01
 C   1.018515453472E+00  5.184818727322E+00 -7.987961431834E-01
 C   1.532487893039E+00  2.818964554076E+00 -6.411506641523E-01
 H   5.582524614421E-01  6.075225367204E+00 -3.769468264397E-01
 C   1.640613337578E+00  5.250231717028E+00 -2.052718215126E+00
 C   2.108185668568E+00  2.871717255168E+00 -1.919430740474E+00
 N   1.518948251738E+00  1.666874313293E+00  1.802753123136E-01
 O   1.742588470641E+00  6.426312011674E+00 -2.742701121274E+00
 C   2.162815558956E+00  4.078703039939E+00 -2.614797533009E+00
 H   2.532884428970E+00  1.974927388370E+00 -2.357452849692E+00
 H   1.390930649198E+00  1.858635669274E+00  1.183041743435E+00
 C   1.744786721935E+00  3.712073738496E-01 -1.482142143104E-01
 H   1.629504688120E+00  7.209346712694E+00 -2.118762381702E+00
 H   2.643773539698E+00  4.121228607037E+00 -3.590791536474E+00
 O   2.013804408187E+00  3.326049054721E-03 -1.317132051854E+00
 C   1.670174163331E+00 -5.935415458867E-01  1.007868152906E+00
 H   1.077414883776E+00 -2.034806818714E-01  1.841592558019E+00
 H   1.242884502402E+00 -1.542640778895E+00  6.688365851910E-01
 H   2.686202740930E+00 -7.900355535974E-01  1.379989500189E+00

K_POINTS {tpiba}
1
  0.0 0.0 0.0 1.0
