# Keyeords
opti conv molq prop phonon eigenvector

cell 
7.073 9.166 12.667 90.000 115.510 90.000

space
P 1 21/c 1

fractional  1
O1    core      0.05870   0.42489  0.72189    -0.499100  1.00000  0.00000
H2    core	    0.20010   0.46470  0.74240     0.418000  1.00000  0.00000 
O2    core      0.45550  -0.00741  0.30854    -0.593100  1.00000  0.00000
N1    core      0.78771   0.05016  0.33911    -0.472100  1.00000  0.00000 
H3    core      0.89180   0.04070  0.30490     0.313500  1.00000  0.00000 
C1    core     -0.00430   0.33162  0.62922     0.096100  1.00000  0.00000
C1    core      0.85040   0.14210  0.43813     0.035600  1.00000  0.00000
C1    core      0.75680   0.14242  0.51474    -0.134500  1.00000  0.00000
H1    core      0.62840   0.07020  0.50120     0.153000  1.00000  0.00000 
C1    core      0.82960   0.23794  0.60996    -0.158000  1.00000  0.00000 
H1    core      0.75780   0.23660  0.66960     0.143500  1.00000  0.00000
C3    core      0.58320   0.89631  0.17560    -0.178100  1.00000  0.00000
H4    core      0.43160  -0.08530  0.10390     0.068700  1.00000  0.00000
H4    core      0.70610  -0.07980  0.14990     0.068700  1.00000  0.00000
H4    core      0.59140   0.78090  0.19770     0.068700  1.00000  0.00000
C1    core      0.09210   0.32908  0.55399    -0.158000  1.00000  0.00000
H1    core      0.22340   0.40000  0.56910     0.143500  1.00000  0.00000
C2    core      0.60170  -0.01599  0.28025     0.665100  1.00000  0.00000
C1    core      0.01940   0.23440  0.45894    -0.134500  1.00000  0.00000
H1    core      0.09230   0.23360  0.39950     0.153000  1.00000  0.00000

Species
C1 core C_ca
C2 core C_c
C3 core C_c3
H1 core H_ha
H2 core H_ho
H3 core H_hn
H4 core H_hc
O1 core O_oh
O2 core O_o
N1 core N_n

kpoints
0.0 0.0 0.0 0.5
kpoints
0.5 0.5 0.5 0.5

library gaff.lib
output lammps test

# dispersion 8 20
# 0.0 0.0 0.0 to 0.0 0.5 0.0
# 0.0 0.5 0.0 to 0.5 0.5 0.0
# 0.5 0.5 0.0 to 0.5 0.5 0.5
# 0.5 0.5 0.5 to 0.0 0.5 0.5
# 0.0 0.5 0.5 to 0.0 0.0 0.5
# 0.0 0.0 0.5 to 0.5 0.0 0.5
# 0.5 0.0 0.5 to 0.5 0.0 0.0
# 0.5 0.0 0.0 to 0.5 0.0 0.0

# cell 
# 7.125 9.220 11.600 90.000 98.130 90.000

# space
# P 1 21/n 1

# fractional
# O1    core      0.16385   0.07414  1.22204    -0.499100  1.00000  0.00000
# H2    core	    0.04261   0.03258  1.24218     0.418000  1.00000  0.00000 
# O2    core      0.35365   0.50764  0.80904    -0.593100  1.00000  0.00000
# N1    core      0.05193   0.45053  0.83912    -0.472100  1.00000  0.00000
# H3    core     -0.08849   0.45938  0.80367     0.313500  1.00000  0.00000 
# C1    core      0.13364   0.16834  1.12903     0.096100  1.00000  0.00000
# C1    core      0.08764   0.35854  0.93773     0.035600  1.00000  0.00000
# C1    core      0.25904   0.35764  1.01503    -0.134500  1.00000  0.00000
# H1    core      0.37301   0.43089  1.00218     0.153000  1.00000  0.00000
# C1    core     -0.03904   0.17084  1.05323    -0.158000  1.00000  0.00000
# H1    core     -0.15341   0.09808  1.06798     0.143500  1.00000  0.00000
# C3    core      0.09285   0.60504  0.67623    -0.178100  1.00000  0.00000
# H4    core     -0.05431   0.58211  0.65141     0.068700  1.00000  0.00000
# H4    core      0.17111   0.58561  0.60288     0.068700  1.00000  0.00000
# H4    core      0.10712   0.71979  0.69671     0.068700  1.00000  0.00000
# C1    core      0.28045   0.26264  1.10973    -0.158000  1.00000  0.00000
# H1    core      0.41261   0.26349  1.17087     0.143500  1.00000  0.00000
# C2    core      0.17894   0.51673  0.78033     0.665100  1.00000  0.00000
# C1    core     -0.06055   0.26594  0.95903    -0.134500  1.00000  0.00000
# H1    core     -0.19491   0.26759  0.89918     0.153000  1.00000  0.00000

# Species
# C1 core C_ca
# C2 core C_c
# C3 core C_c3
# H1 core H_ha
# H2 core H_ho
# H3 core H_hn
# H4 core H_hc
# O1 core O_oh
# O2 core O_o
# N1 core N_n

# shrink 
# 1 1 1 

# dispersion 8 20
# 0.0 0.0 0.0 to 0.0 0.5 0.0
# 0.0 0.5 0.0 to 0.5 0.5 0.0
# 0.5 0.5 0.0 to 0.5 0.5 0.5
# 0.5 0.5 0.5 to 0.0 0.5 0.5
# 0.0 0.5 0.5 to 0.0 0.0 0.5
# 0.0 0.0 0.5 to 0.5 0.0 0.5
# 0.5 0.0 0.5 to 0.5 0.0 0.0
# 0.5 0.0 0.0 to 0.5 0.0 0.0

# library gaff.lib

